c A SAT instance generated from a 3-CNF formula that had 70 clauses and 10 variables
p cnf 10 70
7 -3 6 0
-10 7 8 0
10 -1 3 0
-8 6 -9 0
1 -3 -5 0
-3 -2 -9 0
-5 -10 1 0
4 -7 10 0
-5 -8 4 0
-7 -9 -3 0
-4 1 5 0
-6 -8 4 0
-7 4 -1 0
5 -6 -4 0
-1 5 -8 0
7 1 -3 0
5 3 -4 0
10 -4 -2 0
-6 -2 -5 0
-10 -3 -2 0
-3 5 10 0
-1 -7 3 0
-4 -5 10 0
-7 -6 -1 0
-8 -9 -5 0
10 2 -1 0
7 -9 -8 0
-10 7 9 0
1 -10 -3 0
-1 -3 10 0
8 -3 10 0
-2 9 4 0
-5 1 -2 0
-7 4 -3 0
-4 2 8 0
-5 6 7 0
-1 9 3 0
2 -9 -1 0
-7 -9 10 0
1 10 -2 0
6 -10 -3 0
-2 8 -9 0
3 4 -1 0
-10 -3 -8 0
6 4 7 0
-9 6 4 0
6 5 -9 0
-9 -8 10 0
9 8 1 0
-5 -4 -1 0
-9 -1 3 0
1 -5 -8 0
-4 -3 1 0
-8 -3 2 0
-3 5 9 0
-2 1 4 0
5 -7 -8 0
6 -2 10 0
-4 5 9 0
4 7 -10 0
10 -1 3 0
-8 -10 2 0
7 -8 -10 0
-3 6 -2 0
-3 -10 -2 0
4 8 -2 0
9 1 6 0
-2 3 9 0
-10 -9 -1 0
-5 -7 -8 0
%
0

94 38 14 29 61 49 95 38 29 55
